# Solution for model osmosis_srl_ilp
# Objective value = 1.8928394408705060e+01
Z_110_0_0 0
Z_110_0_1 0
Z_110_0_2 0
Z_110_0_3 0
Z_110_0_4 1
Z_309_0_0 0
Z_309_0_1 0
Z_309_0_2 1
Z_309_0_3 0
Z_309_0_4 0
Z_53_0_0 0
Z_53_0_1 0
Z_53_0_2 1
Z_53_0_3 0
Z_53_0_4 0
Z_82_0_0 0
Z_82_0_1 0
Z_82_0_2 1
Z_82_0_3 0
Z_82_0_4 0
Z_306_0_0 0
Z_306_0_1 0
Z_306_0_2 1
Z_306_0_3 0
Z_306_0_4 0
Z_302_0_0 0
Z_302_0_1 0
Z_302_0_2 1
Z_302_0_3 0
Z_302_0_4 0
Z_516_0_0 0
Z_516_0_1 0
Z_516_0_2 1
Z_516_0_3 0
Z_516_0_4 0
Z_296_0_0 0
Z_296_0_1 0
Z_296_0_2 1
Z_296_0_3 0
Z_296_0_4 0
Z_642_0_0 0
Z_642_0_1 0
Z_642_0_2 1
Z_642_0_3 0
Z_642_0_4 0
Z_696_0_0 0
Z_696_0_1 0
Z_696_0_2 0
Z_696_0_3 0
Z_696_0_4 1
Z_52_0_0 0
Z_52_0_1 0
Z_52_0_2 1
Z_52_0_3 0
Z_52_0_4 0
Z_619_0_0 0
Z_619_0_1 0
Z_619_0_2 1
Z_619_0_3 0
Z_619_0_4 0
Z_504_0_0 0
Z_504_0_1 0
Z_504_0_2 1
Z_504_0_3 0
Z_504_0_4 0
Z_535_2_0 0
Z_535_2_1 0
Z_535_2_2 0
Z_535_2_3 0
Z_535_2_4 1
Z_535_1_0 0
Z_535_1_1 0
Z_535_1_2 0
Z_535_1_3 0
Z_535_1_4 1
Z_535_3_0 0
Z_535_3_1 0
Z_535_3_2 0
Z_535_3_3 0
Z_535_3_4 1
Z_535_0_0 0
Z_535_0_1 0
Z_535_0_2 1
Z_535_0_3 0
Z_535_0_4 0
Z_101_0_0 0
Z_101_0_1 0
Z_101_0_2 0
Z_101_0_3 0
Z_101_0_4 1
Z_728_0_0 0
Z_728_0_1 0
Z_728_0_2 1
Z_728_0_3 0
Z_728_0_4 0
Z_334_0_0 0
Z_334_0_1 0
Z_334_0_2 0
Z_334_0_3 0
Z_334_0_4 1
Z_727_0_0 0
Z_727_0_1 0
Z_727_0_2 1
Z_727_0_3 0
Z_727_0_4 0
Z_185_6_0 0
Z_185_6_1 0
Z_185_6_2 0
Z_185_6_3 0
Z_185_6_4 1
Z_185_0_0 0
Z_185_0_1 0
Z_185_0_2 0
Z_185_0_3 0
Z_185_0_4 1
Z_185_3_0 0
Z_185_3_1 0
Z_185_3_2 0
Z_185_3_3 0
Z_185_3_4 1
Z_185_1_0 0
Z_185_1_1 0
Z_185_1_2 0
Z_185_1_3 0
Z_185_1_4 1
Z_185_4_0 0
Z_185_4_1 0
Z_185_4_2 0
Z_185_4_3 0
Z_185_4_4 1
Z_185_2_0 0
Z_185_2_1 0
Z_185_2_2 1
Z_185_2_3 0
Z_185_2_4 0
Z_607_0_0 0
Z_607_0_1 0
Z_607_0_2 1
Z_607_0_3 0
Z_607_0_4 0
Z_246_0_0 0
Z_246_0_1 0
Z_246_0_2 1
Z_246_0_3 0
Z_246_0_4 0
